# Objective value = 0
err 0
q-1 5.0705432234000000e+02
q-2 3.5589523615000007e+02
q-3 2
q-4 1
q-5 0
s-1 1.0575338874500001e+03
s-2 5.8362521751999998e+02
s-3 3.8526779363999981e+02
s-4 2
s-5 1
s-6 0
comm 1.6766529502100000e+03
